c FILE /home/rafael/Documents/HappySet/MIHS/inputs/happygen/output/graph_scale_free_k3_p0.3_v50_20241127_082412.txt
c SOURCE This is a scale-free graph formed for the happy graph colouring problem.
c DESCRIPTION It was generated using the problem generator of Rhyd Lewis
c
c GRAPH STATS
c Seed                             = 741363853
c Number of Nodes                  = 50
c Number of colours k              = 3
c Number of pre-assignments        = 15
c Number of links per new node     = 5
c Density                          = 0.191837
c 
c The degrees of nodes 1 to 50, respectively, are as follows 
c [28, 24, 23, 20, 16, 16, 16, 15, 14, 13, 12, 12, 12, 10, 10, 10, 10, 10, 10, 9, 9, 9, 8, 8, 7, 7, 
c  7, 7, 7, 6, 6, 6, 6, 6, 6, 5, 5, 5, 5, 5, 5, 5, 5, 5, 5, 5, 5, 5, 5, 5] 
c  
p edge 50 235 3
e 1 2
e 1 3
e 1 4
e 1 5
e 1 6
e 1 8
e 1 9
e 1 11
e 1 13
e 1 14
e 1 15
e 1 16
e 1 18
e 1 19
e 1 21
e 1 23
e 1 24
e 1 25
e 1 28
e 1 29
e 1 35
e 1 39
e 1 40
e 1 42
e 1 43
e 1 45
e 1 46
e 1 48
e 2 3
e 2 4
e 2 5
e 2 8
e 2 9
e 2 10
e 2 11
e 2 12
e 2 14
e 2 15
e 2 16
e 2 18
e 2 19
e 2 20
e 2 21
e 2 25
e 2 26
e 2 29
e 2 35
e 2 40
e 2 48
e 2 49
e 2 50
e 3 4
e 3 5
e 3 6
e 3 7
e 3 8
e 3 9
e 3 10
e 3 14
e 3 15
e 3 21
e 3 22
e 3 24
e 3 27
e 3 28
e 3 29
e 3 33
e 3 36
e 3 38
e 3 45
e 3 48
e 3 50
e 4 5
e 4 7
e 4 8
e 4 9
e 4 10
e 4 14
e 4 19
e 4 20
e 4 21
e 4 22
e 4 23
e 4 24
e 4 25
e 4 27
e 4 28
e 4 30
e 4 41
e 5 6
e 5 8
e 5 9
e 5 11
e 5 15
e 5 25
e 5 31
e 5 37
e 5 39
e 5 41
e 5 43
e 5 44
e 6 8
e 6 11
e 6 14
e 6 15
e 6 16
e 6 17
e 6 23
e 6 32
e 6 35
e 6 38
e 6 44
e 6 47
e 6 48
e 7 8
e 7 11
e 7 12
e 7 19
e 7 27
e 7 29
e 7 30
e 7 31
e 7 33
e 7 37
e 7 43
e 7 46
e 7 47
e 7 50
e 8 14
e 8 18
e 8 26
e 8 28
e 8 29
e 8 31
e 8 42
e 8 44
e 9 11
e 9 12
e 9 17
e 9 20
e 9 22
e 9 32
e 9 33
e 9 37
e 9 49
e 10 11
e 10 12
e 10 13
e 10 15
e 10 16
e 10 17
e 10 23
e 10 31
e 10 33
e 10 34
e 11 18
e 11 26
e 11 40
e 11 49
e 11 50
e 12 14
e 12 15
e 12 16
e 12 22
e 12 25
e 12 32
e 12 37
e 12 46
e 13 19
e 13 21
e 13 26
e 13 32
e 13 34
e 13 39
e 13 42
e 13 43
e 13 44
e 13 45
e 14 18
e 14 20
e 14 36
e 15 20
e 15 22
e 15 44
e 16 17
e 16 21
e 16 23
e 16 38
e 16 46
e 17 20
e 17 30
e 17 34
e 17 36
e 17 40
e 17 42
e 18 19
e 18 26
e 18 37
e 18 39
e 18 47
e 19 27
e 19 30
e 19 39
e 19 40
e 20 28
e 20 35
e 20 36
e 21 31
e 21 45
e 21 47
e 22 27
e 22 36
e 22 46
e 22 47
e 23 26
e 23 35
e 23 41
e 24 27
e 24 31
e 24 32
e 24 38
e 24 43
e 25 30
e 25 38
e 26 33
e 27 49
e 28 34
e 28 41
e 29 49
e 29 50
e 30 41
e 32 45
e 33 34
e 34 42
e 35 48
n 4 2
n 6 3
n 10 2
n 25 2
n 27 2
n 30 2
n 32 3
n 34 2
n 36 1
n 39 3
n 40 1
n 41 2
n 42 2
n 43 3
n 48 3
